inputs/input_20_4.lp
edificio( 1 , 1 , 0 ).
edificio( 1 , 2 , 0 ).
edificio( 1 , 3 , 1 ).
edificio( 1 , 4 , 0 ).
edificio( 1 , 5 , 0 ).
edificio( 1 , 6 , 1 ).
edificio( 1 , 7 , 0 ).
edificio( 1 , 8 , 0 ).
edificio( 1 , 9 , 1 ).
edificio( 1 , 10 , 0 ).
edificio( 1 , 11 , 0 ).
edificio( 1 , 12 , 1 ).
edificio( 1 , 13 , 0 ).
edificio( 1 , 14 , 1 ).
edificio( 1 , 15 , 1 ).
edificio( 1 , 16 , 0 ).
edificio( 1 , 17 , 0 ).
edificio( 1 , 18 , 0 ).
edificio( 1 , 19 , 0 ).
edificio( 1 , 20 , 0 ).
edificio( 2 , 1 , 0 ).
edificio( 2 , 2 , 0 ).
edificio( 2 , 3 , 0 ).
edificio( 2 , 4 , 0 ).
edificio( 2 , 5 , 0 ).
edificio( 2 , 6 , 1 ).
edificio( 2 , 7 , 0 ).
edificio( 2 , 8 , 0 ).
edificio( 2 , 9 , 0 ).
edificio( 2 , 10 , 0 ).
edificio( 2 , 11 , 0 ).
edificio( 2 , 12 , 0 ).
edificio( 2 , 13 , 0 ).
edificio( 2 , 14 , 0 ).
edificio( 2 , 15 , 1 ).
edificio( 2 , 16 , 1 ).
edificio( 2 , 17 , 0 ).
edificio( 2 , 18 , 0 ).
edificio( 2 , 19 , 1 ).
edificio( 2 , 20 , 0 ).
edificio( 3 , 1 , 0 ).
edificio( 3 , 2 , 1 ).
edificio( 3 , 3 , 0 ).
edificio( 3 , 4 , 1 ).
edificio( 3 , 5 , 0 ).
edificio( 3 , 6 , 1 ).
edificio( 3 , 7 , 0 ).
edificio( 3 , 8 , 1 ).
edificio( 3 , 9 , 1 ).
edificio( 3 , 10 , 1 ).
edificio( 3 , 11 , 0 ).
edificio( 3 , 12 , 0 ).
edificio( 3 , 13 , 0 ).
edificio( 3 , 14 , 0 ).
edificio( 3 , 15 , 1 ).
edificio( 3 , 16 , 0 ).
edificio( 3 , 17 , 0 ).
edificio( 3 , 18 , 0 ).
edificio( 3 , 19 , 1 ).
edificio( 3 , 20 , 0 ).
edificio( 4 , 1 , 0 ).
edificio( 4 , 2 , 0 ).
edificio( 4 , 3 , 0 ).
edificio( 4 , 4 , 0 ).
edificio( 4 , 5 , 1 ).
edificio( 4 , 6 , 0 ).
edificio( 4 , 7 , 0 ).
edificio( 4 , 8 , 0 ).
edificio( 4 , 9 , 0 ).
edificio( 4 , 10 , 0 ).
edificio( 4 , 11 , 0 ).
edificio( 4 , 12 , 1 ).
edificio( 4 , 13 , 1 ).
edificio( 4 , 14 , 0 ).
edificio( 4 , 15 , 0 ).
edificio( 4 , 16 , 0 ).
edificio( 4 , 17 , 0 ).
edificio( 4 , 18 , 0 ).
edificio( 4 , 19 , 1 ).
edificio( 4 , 20 , 0 ).
edificio( 5 , 1 , 1 ).
edificio( 5 , 2 , 0 ).
edificio( 5 , 3 , 0 ).
edificio( 5 , 4 , 1 ).
edificio( 5 , 5 , 0 ).
edificio( 5 , 6 , 0 ).
edificio( 5 , 7 , 0 ).
edificio( 5 , 8 , 0 ).
edificio( 5 , 9 , 0 ).
edificio( 5 , 10 , 0 ).
edificio( 5 , 11 , 0 ).
edificio( 5 , 12 , 0 ).
edificio( 5 , 13 , 0 ).
edificio( 5 , 14 , 0 ).
edificio( 5 , 15 , 0 ).
edificio( 5 , 16 , 0 ).
edificio( 5 , 17 , 1 ).
edificio( 5 , 18 , 0 ).
edificio( 5 , 19 , 0 ).
edificio( 5 , 20 , 1 ).
edificio( 6 , 1 , 0 ).
edificio( 6 , 2 , 1 ).
edificio( 6 , 3 , 1 ).
edificio( 6 , 4 , 1 ).
edificio( 6 , 5 , 0 ).
edificio( 6 , 6 , 0 ).
edificio( 6 , 7 , 0 ).
edificio( 6 , 8 , 1 ).
edificio( 6 , 9 , 0 ).
edificio( 6 , 10 , 0 ).
edificio( 6 , 11 , 0 ).
edificio( 6 , 12 , 0 ).
edificio( 6 , 13 , 0 ).
edificio( 6 , 14 , 1 ).
edificio( 6 , 15 , 0 ).
edificio( 6 , 16 , 0 ).
edificio( 6 , 17 , 0 ).
edificio( 6 , 18 , 0 ).
edificio( 6 , 19 , 1 ).
edificio( 6 , 20 , 0 ).
edificio( 7 , 1 , 0 ).
edificio( 7 , 2 , 1 ).
edificio( 7 , 3 , 0 ).
edificio( 7 , 4 , 1 ).
edificio( 7 , 5 , 0 ).
edificio( 7 , 6 , 0 ).
edificio( 7 , 7 , 0 ).
edificio( 7 , 8 , 0 ).
edificio( 7 , 9 , 0 ).
edificio( 7 , 10 , 0 ).
edificio( 7 , 11 , 0 ).
edificio( 7 , 12 , 0 ).
edificio( 7 , 13 , 0 ).
edificio( 7 , 14 , 0 ).
edificio( 7 , 15 , 0 ).
edificio( 7 , 16 , 0 ).
edificio( 7 , 17 , 0 ).
edificio( 7 , 18 , 0 ).
edificio( 7 , 19 , 0 ).
edificio( 7 , 20 , 0 ).
edificio( 8 , 1 , 0 ).
edificio( 8 , 2 , 0 ).
edificio( 8 , 3 , 0 ).
edificio( 8 , 4 , 0 ).
edificio( 8 , 5 , 0 ).
edificio( 8 , 6 , 1 ).
edificio( 8 , 7 , 0 ).
edificio( 8 , 8 , 0 ).
edificio( 8 , 9 , 1 ).
edificio( 8 , 10 , 0 ).
edificio( 8 , 11 , 0 ).
edificio( 8 , 12 , 0 ).
edificio( 8 , 13 , 1 ).
edificio( 8 , 14 , 0 ).
edificio( 8 , 15 , 0 ).
edificio( 8 , 16 , 0 ).
edificio( 8 , 17 , 0 ).
edificio( 8 , 18 , 1 ).
edificio( 8 , 19 , 0 ).
edificio( 8 , 20 , 0 ).
edificio( 9 , 1 , 0 ).
edificio( 9 , 2 , 0 ).
edificio( 9 , 3 , 0 ).
edificio( 9 , 4 , 1 ).
edificio( 9 , 5 , 0 ).
edificio( 9 , 6 , 0 ).
edificio( 9 , 7 , 0 ).
edificio( 9 , 8 , 0 ).
edificio( 9 , 9 , 0 ).
edificio( 9 , 10 , 0 ).
edificio( 9 , 11 , 0 ).
edificio( 9 , 12 , 0 ).
edificio( 9 , 13 , 0 ).
edificio( 9 , 14 , 0 ).
edificio( 9 , 15 , 0 ).
edificio( 9 , 16 , 0 ).
edificio( 9 , 17 , 0 ).
edificio( 9 , 18 , 0 ).
edificio( 9 , 19 , 0 ).
edificio( 9 , 20 , 0 ).
edificio( 10 , 1 , 0 ).
edificio( 10 , 2 , 0 ).
edificio( 10 , 3 , 0 ).
edificio( 10 , 4 , 0 ).
edificio( 10 , 5 , 0 ).
edificio( 10 , 6 , 0 ).
edificio( 10 , 7 , 0 ).
edificio( 10 , 8 , 1 ).
edificio( 10 , 9 , 0 ).
edificio( 10 , 10 , 1 ).
edificio( 10 , 11 , 0 ).
edificio( 10 , 12 , 0 ).
edificio( 10 , 13 , 1 ).
edificio( 10 , 14 , 0 ).
edificio( 10 , 15 , 0 ).
edificio( 10 , 16 , 0 ).
edificio( 10 , 17 , 1 ).
edificio( 10 , 18 , 2 ).
edificio( 10 , 19 , 0 ).
edificio( 10 , 20 , 1 ).
edificio( 11 , 1 , 0 ).
edificio( 11 , 2 , 0 ).
edificio( 11 , 3 , 0 ).
edificio( 11 , 4 , 1 ).
edificio( 11 , 5 , 0 ).
edificio( 11 , 6 , 0 ).
edificio( 11 , 7 , 1 ).
edificio( 11 , 8 , 0 ).
edificio( 11 , 9 , 0 ).
edificio( 11 , 10 , 1 ).
edificio( 11 , 11 , 0 ).
edificio( 11 , 12 , 1 ).
edificio( 11 , 13 , 0 ).
edificio( 11 , 14 , 1 ).
edificio( 11 , 15 , 0 ).
edificio( 11 , 16 , 0 ).
edificio( 11 , 17 , 0 ).
edificio( 11 , 18 , 0 ).
edificio( 11 , 19 , 0 ).
edificio( 11 , 20 , 0 ).
edificio( 12 , 1 , 0 ).
edificio( 12 , 2 , 0 ).
edificio( 12 , 3 , 0 ).
edificio( 12 , 4 , 0 ).
edificio( 12 , 5 , 0 ).
edificio( 12 , 6 , 0 ).
edificio( 12 , 7 , 0 ).
edificio( 12 , 8 , 0 ).
edificio( 12 , 9 , 0 ).
edificio( 12 , 10 , 0 ).
edificio( 12 , 11 , 0 ).
edificio( 12 , 12 , 0 ).
edificio( 12 , 13 , 0 ).
edificio( 12 , 14 , 1 ).
edificio( 12 , 15 , 0 ).
edificio( 12 , 16 , 1 ).
edificio( 12 , 17 , 1 ).
edificio( 12 , 18 , 1 ).
edificio( 12 , 19 , 1 ).
edificio( 12 , 20 , 1 ).
edificio( 13 , 1 , 0 ).
edificio( 13 , 2 , 1 ).
edificio( 13 , 3 , 0 ).
edificio( 13 , 4 , 0 ).
edificio( 13 , 5 , 0 ).
edificio( 13 , 6 , 0 ).
edificio( 13 , 7 , 1 ).
edificio( 13 , 8 , 0 ).
edificio( 13 , 9 , 0 ).
edificio( 13 , 10 , 0 ).
edificio( 13 , 11 , 1 ).
edificio( 13 , 12 , 0 ).
edificio( 13 , 13 , 0 ).
edificio( 13 , 14 , 0 ).
edificio( 13 , 15 , 1 ).
edificio( 13 , 16 , 0 ).
edificio( 13 , 17 , 0 ).
edificio( 13 , 18 , 0 ).
edificio( 13 , 19 , 0 ).
edificio( 13 , 20 , 0 ).
edificio( 14 , 1 , 0 ).
edificio( 14 , 2 , 0 ).
edificio( 14 , 3 , 0 ).
edificio( 14 , 4 , 0 ).
edificio( 14 , 5 , 0 ).
edificio( 14 , 6 , 0 ).
edificio( 14 , 7 , 0 ).
edificio( 14 , 8 , 0 ).
edificio( 14 , 9 , 0 ).
edificio( 14 , 10 , 0 ).
edificio( 14 , 11 , 1 ).
edificio( 14 , 12 , 0 ).
edificio( 14 , 13 , 0 ).
edificio( 14 , 14 , 0 ).
edificio( 14 , 15 , 0 ).
edificio( 14 , 16 , 0 ).
edificio( 14 , 17 , 3 ).
edificio( 14 , 18 , 0 ).
edificio( 14 , 19 , 0 ).
edificio( 14 , 20 , 0 ).
edificio( 15 , 1 , 0 ).
edificio( 15 , 2 , 0 ).
edificio( 15 , 3 , 1 ).
edificio( 15 , 4 , 1 ).
edificio( 15 , 5 , 0 ).
edificio( 15 , 6 , 0 ).
edificio( 15 , 7 , 1 ).
edificio( 15 , 8 , 1 ).
edificio( 15 , 9 , 0 ).
edificio( 15 , 10 , 0 ).
edificio( 15 , 11 , 0 ).
edificio( 15 , 12 , 0 ).
edificio( 15 , 13 , 0 ).
edificio( 15 , 14 , 1 ).
edificio( 15 , 15 , 0 ).
edificio( 15 , 16 , 0 ).
edificio( 15 , 17 , 1 ).
edificio( 15 , 18 , 0 ).
edificio( 15 , 19 , 0 ).
edificio( 15 , 20 , 1 ).
edificio( 16 , 1 , 0 ).
edificio( 16 , 2 , 0 ).
edificio( 16 , 3 , 0 ).
edificio( 16 , 4 , 0 ).
edificio( 16 , 5 , 1 ).
edificio( 16 , 6 , 0 ).
edificio( 16 , 7 , 0 ).
edificio( 16 , 8 , 0 ).
edificio( 16 , 9 , 0 ).
edificio( 16 , 10 , 1 ).
edificio( 16 , 11 , 0 ).
edificio( 16 , 12 , 1 ).
edificio( 16 , 13 , 0 ).
edificio( 16 , 14 , 1 ).
edificio( 16 , 15 , 0 ).
edificio( 16 , 16 , 0 ).
edificio( 16 , 17 , 0 ).
edificio( 16 , 18 , 1 ).
edificio( 16 , 19 , 1 ).
edificio( 16 , 20 , 0 ).
edificio( 17 , 1 , 0 ).
edificio( 17 , 2 , 1 ).
edificio( 17 , 3 , 0 ).
edificio( 17 , 4 , 1 ).
edificio( 17 , 5 , 0 ).
edificio( 17 , 6 , 0 ).
edificio( 17 , 7 , 0 ).
edificio( 17 , 8 , 0 ).
edificio( 17 , 9 , 1 ).
edificio( 17 , 10 , 1 ).
edificio( 17 , 11 , 0 ).
edificio( 17 , 12 , 1 ).
edificio( 17 , 13 , 1 ).
edificio( 17 , 14 , 0 ).
edificio( 17 , 15 , 0 ).
edificio( 17 , 16 , 0 ).
edificio( 17 , 17 , 0 ).
edificio( 17 , 18 , 0 ).
edificio( 17 , 19 , 0 ).
edificio( 17 , 20 , 0 ).
edificio( 18 , 1 , 0 ).
edificio( 18 , 2 , 1 ).
edificio( 18 , 3 , 0 ).
edificio( 18 , 4 , 0 ).
edificio( 18 , 5 , 0 ).
edificio( 18 , 6 , 1 ).
edificio( 18 , 7 , 0 ).
edificio( 18 , 8 , 1 ).
edificio( 18 , 9 , 0 ).
edificio( 18 , 10 , 0 ).
edificio( 18 , 11 , 0 ).
edificio( 18 , 12 , 1 ).
edificio( 18 , 13 , 0 ).
edificio( 18 , 14 , 0 ).
edificio( 18 , 15 , 0 ).
edificio( 18 , 16 , 1 ).
edificio( 18 , 17 , 0 ).
edificio( 18 , 18 , 0 ).
edificio( 18 , 19 , 0 ).
edificio( 18 , 20 , 1 ).
edificio( 19 , 1 , 0 ).
edificio( 19 , 2 , 0 ).
edificio( 19 , 3 , 0 ).
edificio( 19 , 4 , 1 ).
edificio( 19 , 5 , 0 ).
edificio( 19 , 6 , 1 ).
edificio( 19 , 7 , 1 ).
edificio( 19 , 8 , 0 ).
edificio( 19 , 9 , 0 ).
edificio( 19 , 10 , 1 ).
edificio( 19 , 11 , 1 ).
edificio( 19 , 12 , 0 ).
edificio( 19 , 13 , 0 ).
edificio( 19 , 14 , 0 ).
edificio( 19 , 15 , 0 ).
edificio( 19 , 16 , 0 ).
edificio( 19 , 17 , 0 ).
edificio( 19 , 18 , 0 ).
edificio( 19 , 19 , 0 ).
edificio( 19 , 20 , 0 ).
edificio( 20 , 1 , 0 ).
edificio( 20 , 2 , 0 ).
edificio( 20 , 3 , 0 ).
edificio( 20 , 4 , 0 ).
edificio( 20 , 5 , 0 ).
edificio( 20 , 6 , 0 ).
edificio( 20 , 7 , 1 ).
edificio( 20 , 8 , 0 ).
edificio( 20 , 9 , 1 ).
edificio( 20 , 10 , 0 ).
edificio( 20 , 11 , 0 ).
edificio( 20 , 12 , 0 ).
edificio( 20 , 13 , 0 ).
edificio( 20 , 14 , 0 ).
edificio( 20 , 15 , 0 ).
edificio( 20 , 16 , 0 ).
edificio( 20 , 17 , 0 ).
edificio( 20 , 18 , 1 ).
edificio( 20 , 19 , 0 ).
edificio( 20 , 20 , 0 ).
